NAME : n60w60.003.619.tour
COMMENT : Length = 619
COMMENT : Found by LKH [Keld Helsgaun] Tue Nov  7 19:35:18 2017
TYPE : TOUR
DIMENSION : 61
TOUR_SECTION
1
53
61
44
32
4
18
8
39
38
24
25
22
15
26
29
54
20
37
10
58
56
13
51
47
21
33
3
52
28
23
31
43
5
30
40
46
36
50
35
7
6
59
42
9
57
14
48
17
19
16
27
41
12
55
34
45
49
60
11
2
-1
EOF
